
ASes= { 1, 2, 3, 4, 5, 6, 7, 8, 9, 10, 11 } ;


Objects= { 1, 2, 3, 4, 5, 6, 7, 8, 9, 10, 11, 12, 13, 14, 15, 16, 17, 18, 19, 20, 21, 22, 23, 24, 25, 26, 27, 28, 29, 30, 31, 32, 33, 34, 35, 36, 37, 38, 39, 40, 41, 42, 43, 44, 45, 46, 47, 48, 49, 50, 51, 52, 53, 54, 55, 56, 57, 58, 59, 60, 61, 62, 63, 64, 65, 66, 67, 68, 69, 70, 71, 72, 73, 74, 75, 76, 77, 78, 79, 80, 81, 82, 83, 84, 85, 86, 87, 88, 89, 90, 91, 92, 93, 94, 95, 96, 97, 98, 99, 100 } ;


QualityLevels= { 0, 1, 2, 3, 4, 5 } ;

Arcs = {<2,1,490000>, <1,2,490000>, <11,1,490000>, <1,11,490000>, <11,2,490000>, <2,11,490000>, <11,10,490000>, <10,11,490000>, <3,2,490000>, <2,3,490000>, <4,3,490000>, <3,4,490000>, <5,4,490000>, <4,5,490000>, <6,5,490000>, <5,6,490000>, <7,6,490000>, <6,7,490000>, <8,4,490000>, <4,8,490000>, <8,7,490000>, <7,8,490000>, <9,3,490000>, <3,9,490000>, <9,8,490000>, <8,9,490000>, <10,9,490000>, <9,10,490000>};


RatePerQuality= [ 0  300  700  1500  2500  3500 ] ;


CacheSpacePerQuality= [ 10000  11.25  26.25  56.25  93.75  131.25 ] ;


UtilityPerQuality= [ 0  0.2  0.4  0.6  0.8  1 ] ;


ObjectsPublishedByProducers=[ [ 0  0  0  0  0  0  0  1  0  0  0 ]  [ 0  0  0  0  0  0  0  1  0  0  0 ]  [ 0  0  0  0  0  0  0  1  0  0  0 ]  [ 0  0  0  0  0  0  0  1  0  0  0 ]  [ 0  0  0  0  0  0  0  1  0  0  0 ]  [ 0  0  0  0  0  0  0  1  0  0  0 ]  [ 0  0  0  0  0  0  0  1  0  0  0 ]  [ 0  0  0  0  0  0  0  1  0  0  0 ]  [ 0  0  0  0  0  0  0  1  0  0  0 ]  [ 0  0  0  0  0  0  0  1  0  0  0 ]  [ 0  0  0  0  0  0  0  1  0  0  0 ]  [ 0  0  0  0  0  0  0  1  0  0  0 ]  [ 0  0  0  0  0  0  0  1  0  0  0 ]  [ 0  0  0  0  0  0  0  1  0  0  0 ]  [ 0  0  0  0  0  0  0  1  0  0  0 ]  [ 0  0  0  0  0  0  0  1  0  0  0 ]  [ 0  0  0  0  0  0  0  1  0  0  0 ]  [ 0  0  0  0  0  0  0  1  0  0  0 ]  [ 0  0  0  0  0  0  0  1  0  0  0 ]  [ 0  0  0  0  0  0  0  1  0  0  0 ]  [ 0  0  0  0  0  0  0  1  0  0  0 ]  [ 0  0  0  0  0  0  0  1  0  0  0 ]  [ 0  0  0  0  0  0  0  1  0  0  0 ]  [ 0  0  0  0  0  0  0  1  0  0  0 ]  [ 0  0  0  0  0  0  0  1  0  0  0 ]  [ 0  0  0  0  0  0  0  1  0  0  0 ]  [ 0  0  0  0  0  0  0  1  0  0  0 ]  [ 0  0  0  0  0  0  0  1  0  0  0 ]  [ 0  0  0  0  0  0  0  1  0  0  0 ]  [ 0  0  0  0  0  0  0  1  0  0  0 ]  [ 0  0  0  0  0  0  0  1  0  0  0 ]  [ 0  0  0  0  0  0  0  1  0  0  0 ]  [ 0  0  0  0  0  0  0  1  0  0  0 ]  [ 0  0  0  0  0  0  0  1  0  0  0 ]  [ 0  0  0  0  0  0  0  1  0  0  0 ]  [ 0  0  0  0  0  0  0  1  0  0  0 ]  [ 0  0  0  0  0  0  0  1  0  0  0 ]  [ 0  0  0  0  0  0  0  1  0  0  0 ]  [ 0  0  0  0  0  0  0  1  0  0  0 ]  [ 0  0  0  0  0  0  0  1  0  0  0 ]  [ 0  0  0  0  0  0  0  1  0  0  0 ]  [ 0  0  0  0  0  0  0  1  0  0  0 ]  [ 0  0  0  0  0  0  0  1  0  0  0 ]  [ 0  0  0  0  0  0  0  1  0  0  0 ]  [ 0  0  0  0  0  0  0  1  0  0  0 ]  [ 0  0  0  0  0  0  0  1  0  0  0 ]  [ 0  0  0  0  0  0  0  1  0  0  0 ]  [ 0  0  0  0  0  0  0  1  0  0  0 ]  [ 0  0  0  0  0  0  0  1  0  0  0 ]  [ 0  0  0  0  0  0  0  1  0  0  0 ]  [ 0  0  0  0  0  0  0  1  0  0  0 ]  [ 0  0  0  0  0  0  0  1  0  0  0 ]  [ 0  0  0  0  0  0  0  1  0  0  0 ]  [ 0  0  0  0  0  0  0  1  0  0  0 ]  [ 0  0  0  0  0  0  0  1  0  0  0 ]  [ 0  0  0  0  0  0  0  1  0  0  0 ]  [ 0  0  0  0  0  0  0  1  0  0  0 ]  [ 0  0  0  0  0  0  0  1  0  0  0 ]  [ 0  0  0  0  0  0  0  1  0  0  0 ]  [ 0  0  0  0  0  0  0  1  0  0  0 ]  [ 0  0  0  0  0  0  0  1  0  0  0 ]  [ 0  0  0  0  0  0  0  1  0  0  0 ]  [ 0  0  0  0  0  0  0  1  0  0  0 ]  [ 0  0  0  0  0  0  0  1  0  0  0 ]  [ 0  0  0  0  0  0  0  1  0  0  0 ]  [ 0  0  0  0  0  0  0  1  0  0  0 ]  [ 0  0  0  0  0  0  0  1  0  0  0 ]  [ 0  0  0  0  0  0  0  1  0  0  0 ]  [ 0  0  0  0  0  0  0  1  0  0  0 ]  [ 0  0  0  0  0  0  0  1  0  0  0 ]  [ 0  0  0  0  0  0  0  1  0  0  0 ]  [ 0  0  0  0  0  0  0  1  0  0  0 ]  [ 0  0  0  0  0  0  0  1  0  0  0 ]  [ 0  0  0  0  0  0  0  1  0  0  0 ]  [ 0  0  0  0  0  0  0  1  0  0  0 ]  [ 0  0  0  0  0  0  0  1  0  0  0 ]  [ 0  0  0  0  0  0  0  1  0  0  0 ]  [ 0  0  0  0  0  0  0  1  0  0  0 ]  [ 0  0  0  0  0  0  0  1  0  0  0 ]  [ 0  0  0  0  0  0  0  1  0  0  0 ]  [ 0  0  0  0  0  0  0  1  0  0  0 ]  [ 0  0  0  0  0  0  0  1  0  0  0 ]  [ 0  0  0  0  0  0  0  1  0  0  0 ]  [ 0  0  0  0  0  0  0  1  0  0  0 ]  [ 0  0  0  0  0  0  0  1  0  0  0 ]  [ 0  0  0  0  0  0  0  1  0  0  0 ]  [ 0  0  0  0  0  0  0  1  0  0  0 ]  [ 0  0  0  0  0  0  0  1  0  0  0 ]  [ 0  0  0  0  0  0  0  1  0  0  0 ]  [ 0  0  0  0  0  0  0  1  0  0  0 ]  [ 0  0  0  0  0  0  0  1  0  0  0 ]  [ 0  0  0  0  0  0  0  1  0  0  0 ]  [ 0  0  0  0  0  0  0  1  0  0  0 ]  [ 0  0  0  0  0  0  0  1  0  0  0 ]  [ 0  0  0  0  0  0  0  1  0  0  0 ]  [ 0  0  0  0  0  0  0  1  0  0  0 ]  [ 0  0  0  0  0  0  0  1  0  0  0 ]  [ 0  0  0  0  0  0  0  1  0  0  0 ]  [ 0  0  0  0  0  0  0  1  0  0  0 ]  [ 0  0  0  0  0  0  0  1  0  0  0 ] ];

ObjRequests = {  <1,5,77>, <2,5,68>, <3,5,152>, <4,5,221>, <5,5,2>, <6,5,24>, <7,5,64>, <8,5,22>, <9,5,21>, <10,5,22>, <11,5,52>, <12,5,4>, <13,5,44>, <14,5,10>, <15,5,73>, <16,5,25>, <17,5,36>, <18,5,39>, <19,5,11>, <20,5,9>, <21,5,6>, <22,5,2>, <23,5,11>, <24,5,5>, <25,5,11>, <26,5,13>, <27,5,42>, <28,5,9>, <29,5,14>, <30,5,7>, <31,5,4>, <32,5,5>, <33,5,5>, <34,5,2>, <35,5,23>, <36,5,9>, <37,5,28>, <38,5,17>, <39,5,35>, <40,5,1>, <41,5,2>, <42,5,25>, <43,5,16>, <44,5,26>, <45,5,22>, <46,5,5>, <47,5,10>, <48,5,3>, <49,5,4>, <50,5,29>, <51,5,9>, <52,5,5>, <53,5,5>, <54,5,16>, <55,5,4>, <56,5,10>, <57,5,1>, <58,5,18>, <59,5,1>, <60,5,12>, <61,5,13>, <62,5,5>, <63,5,1>, <64,5,6>, <65,5,30>, <66,5,1>, <67,5,7>, <68,5,19>, <69,5,7>, <70,5,5>, <71,5,2>, <72,5,15>, <73,5,9>, <74,5,1>, <75,5,1>, <76,5,6>, <77,5,1>, <78,5,5>, <79,5,4>, <80,5,2>, <81,5,5>, <82,5,9>, <83,5,2>, <84,5,12>, <85,5,7>, <86,5,7>, <87,5,10>, <88,5,1>, <89,5,6>, <90,5,5>, <91,5,14>, <92,5,8>, <93,5,11>, <94,5,14>, <95,5,7>, <96,5,11>, <97,5,3>, <99,5,9>, <100,5,9>, <1,6,78>, <2,6,273>, <3,6,141>, <4,6,338>, <5,6,140>, <6,6,20>, <7,6,8>, <8,6,84>, <9,6,80>, <10,6,106>, <11,6,53>, <12,6,80>, <13,6,43>, <14,6,64>, <15,6,42>, <16,6,19>, <17,6,39>, <18,6,53>, <19,6,4>, <20,6,27>, <21,6,8>, <22,6,4>, <23,6,14>, <24,6,1>, <25,6,14>, <26,6,10>, <27,6,6>, <28,6,20>, <29,6,22>, <30,6,22>, <31,6,10>, <32,6,22>, <33,6,46>, <34,6,25>, <35,6,35>, <36,6,33>, <37,6,2>, <38,6,8>, <39,6,3>, <40,6,19>, <41,6,15>, <42,6,13>, <43,6,12>, <44,6,12>, <45,6,12>, <46,6,5>, <47,6,11>, <48,6,1>, <49,6,5>, <50,6,2>, <51,6,2>, <52,6,5>, <53,6,13>, <54,6,2>, <55,6,24>, <56,6,13>, <57,6,18>, <58,6,7>, <59,6,13>, <60,6,9>, <61,6,4>, <62,6,11>, <63,6,5>, <64,6,2>, <65,6,1>, <66,6,10>, <67,6,1>, <69,6,1>, <70,6,10>, <71,6,6>, <72,6,1>, <73,6,3>, <74,6,9>, <75,6,4>, <76,6,8>, <77,6,9>, <78,6,1>, <79,6,6>, <80,6,11>, <81,6,6>, <83,6,2>, <84,6,2>, <85,6,2>, <86,6,3>, <87,6,5>, <88,6,5>, <89,6,3>, <90,6,7>, <91,6,1>, <92,6,2>, <93,6,1>, <94,6,4>, <95,6,3>, <96,6,6>, <97,6,1>, <98,6,18>, <99,6,8>, <100,6,11>, <1,7,608>, <2,7,226>, <3,7,313>, <4,7,17>, <5,7,41>, <6,7,125>, <7,7,124>, <8,7,66>, <9,7,9>, <10,7,59>, <11,7,49>, <12,7,54>, <13,7,23>, <14,7,60>, <15,7,10>, <16,7,52>, <17,7,3>, <18,7,2>, <19,7,8>, <20,7,1>, <21,7,70>, <22,7,84>, <23,7,8>, <24,7,19>, <25,7,31>, <26,7,10>, <27,7,5>, <28,7,1>, <29,7,12>, <30,7,49>, <31,7,6>, <32,7,9>, <33,7,32>, <34,7,13>, <36,7,24>, <37,7,26>, <38,7,7>, <39,7,14>, <40,7,3>, <41,7,18>, <42,7,8>, <43,7,8>, <44,7,4>, <45,7,1>, <46,7,6>, <47,7,1>, <48,7,33>, <49,7,14>, <51,7,7>, <52,7,2>, <53,7,3>, <54,7,14>, <55,7,11>, <56,7,6>, <57,7,16>, <58,7,10>, <59,7,9>, <60,7,2>, <61,7,10>, <62,7,14>, <63,7,1>, <65,7,1>, <66,7,1>, <67,7,4>, <68,7,1>, <69,7,14>, <70,7,4>, <71,7,10>, <72,7,8>, <73,7,2>, <74,7,11>, <75,7,3>, <76,7,1>, <79,7,12>, <80,7,5>, <81,7,2>, <82,7,4>, <83,7,12>, <84,7,3>, <85,7,6>, <86,7,1>, <87,7,14>, <88,7,5>, <89,7,14>, <90,7,10>, <91,7,12>, <92,7,5>, <93,7,2>, <94,7,4>, <95,7,3>, <97,7,3>, <98,7,8>, <100,7,3>, <1,1,972>, <2,1,129>, <3,1,96>, <4,1,22>, <5,1,135>, <6,1,90>, <7,1,96>, <8,1,44>, <9,1,97>, <10,1,8>, <11,1,23>, <12,1,7>, <13,1,29>, <14,1,8>, <15,1,11>, <16,1,22>, <17,1,20>, <18,1,22>, <19,1,35>, <20,1,29>, <21,1,38>, <22,1,16>, <23,1,4>, <24,1,29>, <25,1,12>, <26,1,41>, <27,1,6>, <28,1,30>, <29,1,34>, <31,1,42>, <32,1,9>, <33,1,1>, <34,1,4>, <35,1,3>, <37,1,20>, <38,1,12>, <39,1,1>, <40,1,9>, <41,1,2>, <42,1,10>, <43,1,15>, <44,1,24>, <45,1,1>, <46,1,39>, <47,1,11>, <48,1,12>, <49,1,10>, <50,1,8>, <51,1,17>, <52,1,12>, <53,1,8>, <54,1,14>, <56,1,6>, <57,1,1>, <58,1,9>, <59,1,16>, <60,1,4>, <61,1,9>, <62,1,4>, <64,1,2>, <65,1,3>, <66,1,7>, <67,1,6>, <68,1,5>, <69,1,1>, <70,1,12>, <71,1,12>, <72,1,4>, <73,1,7>, <74,1,1>, <75,1,11>, <76,1,3>, <77,1,12>, <78,1,1>, <79,1,1>, <80,1,2>, <81,1,11>, <82,1,7>, <83,1,8>, <84,1,14>, <85,1,12>, <88,1,2>, <89,1,4>, <90,1,7>, <91,1,6>, <92,1,3>, <93,1,11>, <94,1,4>, <95,1,2>, <96,1,2>, <97,1,7>, <98,1,1>, <99,1,1>, <100,1,5>, <1,10,641>, <2,10,494>, <3,10,91>, <4,10,24>, <5,10,165>, <6,10,124>, <7,10,35>, <8,10,74>, <9,10,43>, <10,10,28>, <11,10,30>, <12,10,59>, <13,10,45>, <14,10,22>, <15,10,10>, <16,10,21>, <17,10,32>, <18,10,8>, <19,10,67>, <20,10,49>, <21,10,2>, <22,10,2>, <23,10,72>, <24,10,15>, <25,10,30>, <26,10,5>, <27,10,23>, <28,10,25>, <29,10,3>, <30,10,6>, <31,10,3>, <32,10,27>, <33,10,1>, <34,10,29>, <35,10,1>, <37,10,12>, <38,10,21>, <39,10,2>, <40,10,33>, <41,10,10>, <42,10,10>, <44,10,2>, <45,10,14>, <46,10,10>, <47,10,6>, <48,10,11>, <49,10,14>, <50,10,9>, <51,10,4>, <52,10,24>, <53,10,26>, <54,10,12>, <55,10,1>, <56,10,10>, <57,10,4>, <58,10,7>, <59,10,4>, <60,10,6>, <61,10,6>, <62,10,1>, <63,10,21>, <64,10,10>, <65,10,7>, <66,10,4>, <67,10,21>, <68,10,3>, <69,10,1>, <70,10,8>, <71,10,1>, <72,10,5>, <73,10,5>, <74,10,8>, <75,10,14>, <76,10,7>, <77,10,7>, <78,10,23>, <79,10,3>, <80,10,1>, <81,10,1>, <82,10,9>, <83,10,6>, <84,10,3>, <85,10,3>, <86,10,10>, <87,10,2>, <88,10,13>, <89,10,1>, <90,10,5>, <92,10,5>, <93,10,4>, <94,10,2>, <95,10,3>, <96,10,10>, <97,10,5>, <98,10,3>, <99,10,6>, <100,10,4> };

MaxCacheStorageAtSingleAS= [ 131.25  131.25  131.25  131.25  131.25  131.25  131.25  131.25  131.25  131.25  131.25 ] ;

MaxCacheStorage = 1443.75 ;
SolutionGap = 0.01 ;
